param set_len = 50;
param target = 449238;
param values := [0] 12692 [1] 22912 [2] 473 [3] 28146 [4] 14787 [5] 20409 [6] 24525 [7] 3615 [8] 12578 [9] 8219 [10] 3002 [11] 21336 [12] 24034 [13] 4492 [14] 30373 [15] 25553 [16] 27932 [17] 26913 [18] 11301 [19] 3709 [20] 1475 [21] 7205 [22] 11635 [23] 10744 [24] 26561 [25] 8339 [26] 22586 [27] 14047 [28] 25450 [29] 30454 [30] 17218 [31] 3671 [32] 28207 [33] 23171 [34] 8693 [35] 19487 [36] 15870 [37] 14898 [38] 30285 [39] 23897 [40] 27861 [41] 26968 [42] 1658 [43] 16555 [44] 22964 [45] 17184 [46] 32205 [47] 24957 [48] 14632 [49] 27175 ;
